<number of tasks>
250

<cycle time>
1000

<order strength>
0.597


<task times>
1 68
2 171
3 123
4 116
5 55
6 250
7 39
8 25
9 228
10 23
11 151
12 183
13 44
14 52
15 114
16 120
17 120
18 34
19 80
20 144
21 204
22 55
23 100
24 77
25 130
26 53
27 118
28 203
29 209
30 236
31 174
32 112
33 71
34 123
35 137
36 246
37 121
38 156
39 111
40 214
41 196
42 324
43 97
44 153
45 158
46 200
47 62
48 65
49 44
50 85
51 40
52 198
53 284
54 225
55 140
56 127
57 73
58 67
59 336
60 216
61 220
62 51
63 139
64 191
65 133
66 199
67 169
68 230
69 40
70 198
71 307
72 68
73 139
74 23
75 170
76 29
77 148
78 129
79 93
80 234
81 71
82 161
83 81
84 157
85 173
86 208
87 66
88 133
89 237
90 93
91 322
92 186
93 41
94 280
95 82
96 118
97 20
98 34
99 144
100 106
101 145
102 144
103 78
104 93
105 222
106 73
107 76
108 79
109 289
110 212
111 31
112 43
113 138
114 265
115 156
116 128
117 112
118 36
119 76
120 30
121 237
122 108
123 208
124 194
125 143
126 73
127 132
128 252
129 52
130 172
131 110
132 135
133 185
134 49
135 123
136 186
137 82
138 33
139 253
140 289
141 152
142 218
143 132
144 176
145 146
146 120
147 64
148 169
149 90
150 42
151 58
152 148
153 91
154 65
155 113
156 170
157 48
158 81
159 151
160 41
161 199
162 193
163 115
164 42
165 203
166 166
167 211
168 119
169 179
170 176
171 37
172 107
173 336
174 226
175 206
176 229
177 83
178 55
179 106
180 379
181 157
182 281
183 175
184 35
185 281
186 146
187 232
188 108
189 43
190 103
191 85
192 232
193 59
194 179
195 182
196 161
197 196
198 42
199 28
200 212
201 89
202 205
203 54
204 143
205 352
206 164
207 105
208 99
209 169
210 75
211 51
212 81
213 72
214 97
215 99
216 23
217 224
218 174
219 143
220 142
221 30
222 283
223 76
224 90
225 172
226 143
227 177
228 98
229 138
230 155
231 149
232 97
233 129
234 93
235 110
236 177
237 113
238 227
239 110
240 121
241 247
242 161
243 122
244 137
245 204
246 61
247 299
248 90
249 32
250 77

<precedence relations>
1,11
2,12
3,13
4,14
5,15
6,43
7,16
7,17
7,21
7,23
8,16
8,17
9,51
9,58
9,81
9,142
9,143
10,16
10,43
10,66
11,18
12,21
13,22
14,19
15,23
16,20
17,24
17,25
17,26
18,27
19,28
20,30
21,29
21,31
21,32
21,33
21,34
21,38
22,32
22,42
23,32
23,33
23,34
23,38
23,39
24,32
24,33
25,32
26,38
26,58
27,35
28,38
29,36
30,39
31,37
32,40
32,41
32,57
33,42
34,92
34,142
35,43
36,44
37,43
38,46
38,48
38,49
38,50
39,47
39,50
40,45
40,47
40,66
41,43
41,66
42,43
42,51
43,54
43,55
43,56
43,68
43,72
44,54
45,52
45,58
45,79
46,53
46,54
46,57
47,54
47,65
48,54
48,55
48,56
49,82
50,56
51,94
51,110
52,61
53,62
54,59
54,63
54,64
54,80
55,60
55,63
55,65
55,67
56,63
56,64
56,65
57,64
57,66
58,68
58,92
58,117
58,118
59,69
60,71
61,72
62,72
63,70
63,74
63,75
64,172
64,245
65,73
65,80
65,159
65,172
65,228
66,72
66,98
67,183
67,237
67,240
68,231
68,240
69,76
70,77
71,78
72,80
72,122
72,168
73,157
73,213
73,237
74,78
74,79
74,82
75,81
75,103
76,83
77,86
78,84
78,92
79,85
79,86
79,87
79,88
80,199
81,184
82,87
82,88
83,89
84,90
85,91
86,92
86,93
87,92
87,93
87,94
87,95
88,94
88,151
89,96
90,99
91,97
92,98
92,101
93,100
93,102
94,98
94,102
94,103
95,101
95,141
96,107
97,104
98,105
98,106
98,195
98,221
99,108
100,108
100,109
100,110
102,141
102,149
102,161
103,109
104,111
105,112
106,113
107,116
108,114
108,115
109,116
109,117
109,118
110,138
110,174
110,199
110,221
111,122
112,122
113,119
114,120
115,121
116,122
116,123
116,159
117,125
117,126
117,167
117,172
117,192
117,214
118,122
118,124
118,167
118,197
119,128
120,131
121,130
122,129
122,237
123,127
123,133
124,176
125,132
126,159
126,174
127,134
128,135
129,136
130,137
131,140
131,142
131,143
131,150
132,138
132,157
132,173
132,226
133,139
133,141
133,171
134,144
135,148
136,149
137,147
138,145
138,146
139,197
140,151
141,150
141,176
141,219
142,197
142,201
143,185
143,197
143,239
144,152
145,154
146,156
147,153
148,159
148,197
149,157
149,158
149,185
149,198
150,155
150,160
151,158
151,161
152,162
153,163
154,164
155,165
156,166
157,219
157,222
158,176
159,173
159,185
160,174
160,183
161,167
161,168
162,170
163,171
164,169
165,173
166,171
167,174
167,207
168,172
168,175
168,176
169,177
170,181
171,179
171,180
171,228
172,178
172,184
173,229
173,248
174,184
174,185
174,237
175,184
175,191
175,199
175,200
176,182
176,183
177,186
178,187
179,188
180,189
181,191
182,190
182,199
183,192
183,238
184,196
186,195
187,193
188,195
189,195
190,194
191,195
191,197
191,198
191,201
192,196
192,199
192,200
193,205
194,203
195,219
195,222
196,202
197,204
198,239
198,240
199,213
200,207
201,206
201,229
201,236
202,209
203,210
204,212
205,213
206,208
206,214
206,245
207,211
208,215
209,216
210,217
211,218
212,219
213,220
213,222
214,220
214,221
215,223
216,226
217,224
218,225
219,227
220,226
220,247
221,228
222,229
222,230
222,231
223,233
224,234
225,235
227,232
227,238
227,240
228,237
229,239
230,236
232,241
233,242
234,244
235,243
236,247
237,244
238,246
238,250
240,245
241,248
242,248
243,249
246,249
247,250

<end>
